n_res = 4;
rc = [ 21, 8, 10, 27 ];
n_tasks = 30;
d = [ 6, 3, 5, 6, 10, 5, 2, 10, 10, 7, 10, 3, 6, 8, 10, 1, 1, 1, 8, 3, 3, 8, 10, 6, 5, 10, 9, 8, 1, 9 ];
rr = [| 8, 0, 0, 7, 6, 6, 0, 0, 0, 0, 0, 4, 0, 5, 0, 1, 8, 0, 0, 0, 0, 0, 4, 0, 0, 0, 0, 0, 0, 0
      | 0, 0, 0, 0, 0, 0, 0, 0, 0, 0, 0, 0, 0, 0, 0, 0, 0, 0, 8, 0, 0, 0, 0, 0, 8, 0, 3, 0, 3, 0
      | 0, 0, 0, 0, 0, 0, 7, 0, 0, 10, 0, 0, 0, 0, 2, 0, 0, 8, 0, 0, 0, 3, 0, 0, 0, 0, 0, 2, 0, 2
      | 0, 2, 1, 0, 0, 0, 0, 4, 10, 0, 8, 0, 9, 0, 0, 0, 0, 0, 0, 10, 10, 0, 0, 8, 0, 7, 0, 0, 0, 0 |];
suc = [ { 2 }, 
        { 1 }, 
        { 4 }, 
        { 3 }, 
        { 6 }, 
        { 5 }, 
        { 8 }, 
        { 7 }, 
        { 10 }, 
        { 9 }, 
        { 12 }, 
        { 11 }, 
        { 14 }, 
        { 13 }, 
        { 16 }, 
        { 15 }, 
        { 18 }, 
        { 17 }, 
        { 20 }, 
        { 19 }, 
        { 22 }, 
        { 21 }, 
        { 24 }, 
        { 23 }, 
        { 26 }, 
        { 25 }, 
        { 28 }, 
        { 27 }, 
        { 30 }, 
        { 29 }]; 
